NAME: CVRP_BENCHMARK
TYPE: CVRP
COMMENT: none
DIMENSION: 200
NUM_DAYS: 5
CAPACITY: 200
DISTANCE: 9999999
EDGE_WEIGHT_TYPE: FUNCTION
EDGE_WEIGHT_FORMAT: EUC_2D
NODE_COORD_TYPE: TWOD_COORDS
NODE_COORD_SECTION
1	-13.000 -13.000
2	1.000 -9.000
3	-14.000 10.000
4	10.000 0.000
5	20.000 -15.000
6	-2.000 -1.000
7	15.000 15.000
8	20.000 10.000
9	-9.000 24.000
10	5.000 31.000
11	20.000 30.000
12	0.000 16.000
13	27.000 0.000
14	27.000 22.000
15	27.000 -11.000
16	-14.000 1.000
17	-2.000 9.000
18	-26.000 21.000
19	27.000 13.000
20	31.000 -21.000
21	9.000 -22.000
22	-9.000 -22.000
23	-24.000 -7.000
24	-28.000 8.000
25	-18.000 29.000
26	6.000 11.000
27	20.000 -1.000
28	0.000 -19.000
29	17.000 -9.000
30	8.000 -9.000
31	-4.000 41.000
32	-13.000 18.000
33	-9.000 -6.000
34	15.000 5.000
35	20.000 15.000
36	19.000 -25.000
37	25.000 -20.000
38	12.000 31.000
39	-5.000 25.000
40	-5.000 15.000
41	-23.000 -18.000
42	-20.000 -21.000
43	-19.000 -16.000
44	-14.000 13.000
45	15.000 -5.000
46	16.000 7.000
47	15.000 -20.000
48	13.000 -14.000
49	-23.000 3.000
50	2.000 17.000
51	14.000 14.000
52	17.000 29.000
53	-15.000 -9.000
54	5.000 -5.000
55	-14.000 12.000
56	-18.000 28.000
57	-4.000 27.000
58	17.000 -2.000
59	16.000 -14.000
60	7.000 6.000
61	-4.000 -3.000
62	-30.000 -10.000
63	-23.000 7.000
64	1.000 -19.000
65	17.000 6.000
66	-8.000 -12.000
67	-18.000 -2.000
68	-22.000 -22.000
69	22.000 23.000
70	27.000 7.000
71	7.000 22.000
72	-19.000 22.000
73	-27.000 17.000
74	-28.000 3.000
75	-8.000 33.000
76	-5.000 13.000
77	8.000 32.000
78	23.000 13.000
79	23.000 -8.000
80	2.000 34.000
81	3.000 11.000
82	11.000 -25.000
83	26.000 -2.000
84	27.000 28.000
85	28.000 34.000
86	-3.000 -13.000
87	10.000 0.000
88	24.000 -20.000
89	-30.000 -29.000
90	-25.000 -18.000
91	-14.000 -25.000
92	-30.000 29.000
93	-5.000 -20.000
94	4.000 -25.000
95	-3.000 4.000
96	-10.000 -3.000
97	-10.000 20.000
98	13.000 -7.000
99	21.000 2.000
100	6.000 14.000
101	0.000 -18.000
102	20.000 10.000
103	20.000 -15.000
104	-20.000 -5.000
105	-10.000 -5.000
106	-15.000 15.000
107	-25.000 8.000
108	20.000 25.000
109	-5.000 25.000
110	-15.000 30.000
111	15.000 0.000
112	-5.000 -10.000
113	-20.000 -25.000
114	-5.000 -30.000
115	-25.000 -15.000
116	-30.000 -5.000
117	-15.000 5.000
118	-20.000 25.000
119	10.000 30.000
120	10.000 -15.000
121	10.000 -25.000
122	20.000 -30.000
123	30.000 0.000
124	30.000 -15.000
125	10.000 -5.000
126	0.000 5.000
127	6.000 2.000
128	29.000 7.000
129	5.000 25.000
130	-4.000 17.000
131	0.000 34.000
132	18.000 17.000
133	30.000 20.000
134	28.000 30.000
135	-33.000 25.000
136	-15.000 -15.000
137	-30.000 -30.000
138	25.000 -23.000
139	5.000 -10.000
140	7.000 -28.000
141	-11.000 -23.000
142	-12.000 -32.000
143	-24.000 -21.000
144	-29.000 3.000
145	-33.000 13.000
146	-27.000 21.000
147	-22.000 17.000
148	-29.000 33.000
149	12.000 12.000
150	14.000 23.000
151	-8.000 8.000
152	2.000 -4.000
153	22.000 -6.000
154	28.000 -12.000
155	18.000 -23.000
156	-3.000 -23.000
157	1.000 -9.000
158	-14.000 -11.000
159	-18.000 -1.000
160	-23.000 -11.000
161	-11.000 23.000
162	-8.000 34.000
163	-20.000 42.000
164	27.000 42.000
165	14.000 38.000
166	32.000 -30.000
167	21.000 4.000
168	2.000 12.000
169	2.000 21.000
170	22.000 33.000
171	12.000 -19.000
172	9.000 -18.000
173	11.000 -22.000
174	14.000 -24.000
175	14.000 7.000
176	18.000 8.000
177	26.000 17.000
178	22.000 13.000
179	21.000 2.000
180	20.000 19.000
181	-20.000 12.000
182	-21.000 2.000
183	-24.000 -4.000
184	-19.000 -13.000
185	-31.000 -17.000
186	-7.000 -17.000
187	-9.000 17.000
188	-9.000 0.000
189	-4.000 32.000
190	-20.000 -16.000
191	-13.000 -13.000
192	-17.000 -11.000
193	-9.000 -8.000
194	-10.000 -11.000
195	-13.000 -8.000
196	-10.000 -14.000
197	-16.000 -14.000
198	-15.000 -9.000
199	-17.000 -17.000
DEMAND_SECTION
1 18 -1 18 -1 18
2 26 26 26 26 26
3 11 11 -1 11 11
4 30 30 30 30 30
5 21 21 21 21 21
6 19 19 -1 19 19
7 15 15 15 15 15
8 -1 -1 16 -1 16
9 29 -1 29 29 -1
10 26 -1 26 26 26
11 37 -1 37 37 37
12 -1 -1 16 16 16
13 12 12 12 -1 -1
14 -1 31 31 31 31
15 8 8 8 8 8
16 -1 19 19 19 19
17 -1 -1 20 20 20
18 -1 13 13 -1 13
19 15 -1 15 15 15
20 22 22 22 22 22
21 28 -1 -1 28 -1
22 12 -1 12 12 -1
23 -1 6 6 6 -1
24 27 -1 27 27 -1
25 14 14 14 14 14
26 18 18 18 18 -1
27 17 -1 -1 17 17
28 29 -1 -1 29 29
29 13 -1 13 -1 -1
30 22 -1 22 22 -1
31 -1 -1 -1 25 -1
32 -1 -1 -1 -1 -1
33 27 -1 27 27 27
34 19 19 -1 19 19
35 -1 10 10 -1 10
36 12 12 -1 12 -1
37 14 -1 -1 14 -1
38 24 24 24 24 24
39 -1 16 16 -1 16
40 -1 -1 -1 33 -1
41 15 15 -1 -1 15
42 -1 11 11 11 11
43 18 18 18 18 18
44 17 -1 17 17 17
45 21 21 -1 21 21
46 -1 27 27 27 27
47 19 19 19 -1 -1
48 -1 20 20 -1 20
49 5 5 -1 -1 5
50 7 -1 -1 -1 7
51 30 30 30 30 -1
52 16 16 16 16 16
53 9 -1 9 9 9
54 -1 21 21 21 21
55 -1 15 15 15 15
56 -1 19 -1 19 19
57 23 23 23 -1 23
58 -1 -1 11 11 11
59 -1 -1 -1 5 5
60 19 19 -1 19 -1
61 29 29 29 -1 29
62 23 23 -1 23 -1
63 21 21 21 21 -1
64 10 -1 -1 -1 10
65 -1 15 15 -1 -1
66 3 -1 3 3 3
67 41 41 41 41 -1
68 9 9 9 9 9
69 28 28 28 28 28
70 8 -1 8 -1 -1
71 8 -1 8 8 -1
72 -1 16 16 16 16
73 -1 10 10 -1 10
74 28 28 -1 28 28
75 7 -1 -1 7 -1
76 15 15 15 15 15
77 -1 14 14 14 14
78 6 -1 6 -1 6
79 19 19 19 19 19
80 11 11 11 11 11
81 12 -1 -1 12 12
82 23 -1 23 23 -1
83 26 26 26 26 26
84 17 17 -1 17 -1
85 6 -1 -1 6 6
86 -1 -1 9 9 9
87 15 -1 15 -1 15
88 14 14 14 14 -1
89 7 7 7 7 7
90 -1 -1 27 27 27
91 13 -1 13 -1 13
92 11 -1 11 11 11
93 -1 16 16 16 16
94 -1 10 -1 10 10
95 5 5 5 5 5
96 25 25 25 25 25
97 -1 -1 17 17 -1
98 18 18 18 18 18
99 -1 10 10 10 10
100 10 10 10 10 -1
101 7 7 7 7 -1
102 -1 13 -1 13 -1
103 -1 19 -1 -1 19
104 26 26 26 -1 26
105 3 3 3 3 3
106 -1 -1 -1 5 5
107 9 9 9 9 -1
108 16 16 -1 16 -1
109 16 16 16 16 16
110 -1 12 12 12 12
111 19 19 19 19 19
112 23 23 -1 23 23
113 20 20 -1 -1 20
114 8 -1 8 8 8
115 19 19 19 19 19
116 -1 2 -1 -1 2
117 12 -1 12 12 -1
118 -1 -1 17 17 17
119 9 9 -1 9 -1
120 11 11 -1 -1 -1
121 18 18 -1 18 18
122 29 29 29 29 29
123 3 3 -1 3 3
124 6 6 6 6 -1
125 17 -1 17 17 17
126 16 16 16 -1 -1
127 16 16 16 16 -1
128 -1 9 9 -1 -1
129 -1 -1 -1 21 21
130 -1 27 27 -1 27
131 -1 -1 23 23 23
132 11 11 11 11 11
133 14 14 14 14 14
134 8 8 8 8 -1
135 5 5 5 5 5
136 8 8 8 8 8
137 16 16 16 16 16
138 -1 31 31 31 31
139 -1 -1 -1 9 9
140 5 5 5 5 5
141 5 5 -1 5 5
142 7 -1 7 7 7
143 18 18 -1 18 18
144 16 16 16 16 16
145 1 1 1 -1 -1
146 27 27 -1 -1 27
147 36 36 36 36 36
148 30 30 30 30 30
149 13 13 13 -1 13
150 10 -1 10 10 -1
151 9 9 9 9 9
152 -1 14 -1 14 14
153 18 18 18 18 18
154 2 -1 2 2 -1
155 6 6 -1 6 6
156 -1 7 -1 7 -1
157 -1 -1 18 -1 -1
158 28 28 28 28 -1
159 -1 3 -1 3 3
160 13 13 13 13 13
161 -1 19 19 19 19
162 10 10 -1 10 10
163 9 9 9 9 9
164 20 20 20 20 20
165 25 25 25 25 -1
166 25 25 25 25 -1
167 36 36 -1 36 36
168 -1 6 6 6 6
169 -1 5 -1 -1 5
170 15 15 -1 -1 15
171 25 25 25 -1 25
172 9 -1 -1 -1 -1
173 8 8 -1 -1 8
174 18 -1 18 18 -1
175 13 13 -1 13 13
176 14 14 14 14 14
177 3 3 3 -1 3
178 -1 23 23 23 -1
179 -1 6 6 -1 -1
180 -1 -1 -1 26 26
181 16 16 16 -1 -1
182 11 11 -1 -1 11
183 7 7 7 7 7
184 41 -1 41 -1 -1
185 35 -1 35 -1 35
186 -1 26 -1 26 -1
187 9 -1 9 9 9
188 15 -1 15 15 15
189 3 3 -1 3 3
190 -1 1 1 1 1
191 2 -1 -1 2 2
192 22 22 22 22 22
193 -1 27 -1 27 27
194 -1 -1 20 20 20
195 -1 11 11 11 11
196 12 12 -1 12 -1
197 10 10 -1 -1 10
198 9 9 9 -1 -1
199 17 17 -1 -1 17
SVC_TIME_SECTION
1	0.000000	0.000000	0.000000	0.000000	0.000000	
2	0.000000	0.000000	0.000000	0.000000	0.000000	
3	0.000000	0.000000	0.000000	0.000000	0.000000	
4	0.000000	0.000000	0.000000	0.000000	0.000000	
5	0.000000	0.000000	0.000000	0.000000	0.000000	
6	0.000000	0.000000	0.000000	0.000000	0.000000	
7	0.000000	0.000000	0.000000	0.000000	0.000000	
8	0.000000	0.000000	0.000000	0.000000	0.000000	
9	0.000000	0.000000	0.000000	0.000000	0.000000	
10	0.000000	0.000000	0.000000	0.000000	0.000000	
11	0.000000	0.000000	0.000000	0.000000	0.000000	
12	0.000000	0.000000	0.000000	0.000000	0.000000	
13	0.000000	0.000000	0.000000	0.000000	0.000000	
14	0.000000	0.000000	0.000000	0.000000	0.000000	
15	0.000000	0.000000	0.000000	0.000000	0.000000	
16	0.000000	0.000000	0.000000	0.000000	0.000000	
17	0.000000	0.000000	0.000000	0.000000	0.000000	
18	0.000000	0.000000	0.000000	0.000000	0.000000	
19	0.000000	0.000000	0.000000	0.000000	0.000000	
20	0.000000	0.000000	0.000000	0.000000	0.000000	
21	0.000000	0.000000	0.000000	0.000000	0.000000	
22	0.000000	0.000000	0.000000	0.000000	0.000000	
23	0.000000	0.000000	0.000000	0.000000	0.000000	
24	0.000000	0.000000	0.000000	0.000000	0.000000	
25	0.000000	0.000000	0.000000	0.000000	0.000000	
26	0.000000	0.000000	0.000000	0.000000	0.000000	
27	0.000000	0.000000	0.000000	0.000000	0.000000	
28	0.000000	0.000000	0.000000	0.000000	0.000000	
29	0.000000	0.000000	0.000000	0.000000	0.000000	
30	0.000000	0.000000	0.000000	0.000000	0.000000	
31	0.000000	0.000000	0.000000	0.000000	0.000000	
32	0.000000	0.000000	0.000000	0.000000	0.000000	
33	0.000000	0.000000	0.000000	0.000000	0.000000	
34	0.000000	0.000000	0.000000	0.000000	0.000000	
35	0.000000	0.000000	0.000000	0.000000	0.000000	
36	0.000000	0.000000	0.000000	0.000000	0.000000	
37	0.000000	0.000000	0.000000	0.000000	0.000000	
38	0.000000	0.000000	0.000000	0.000000	0.000000	
39	0.000000	0.000000	0.000000	0.000000	0.000000	
40	0.000000	0.000000	0.000000	0.000000	0.000000	
41	0.000000	0.000000	0.000000	0.000000	0.000000	
42	0.000000	0.000000	0.000000	0.000000	0.000000	
43	0.000000	0.000000	0.000000	0.000000	0.000000	
44	0.000000	0.000000	0.000000	0.000000	0.000000	
45	0.000000	0.000000	0.000000	0.000000	0.000000	
46	0.000000	0.000000	0.000000	0.000000	0.000000	
47	0.000000	0.000000	0.000000	0.000000	0.000000	
48	0.000000	0.000000	0.000000	0.000000	0.000000	
49	0.000000	0.000000	0.000000	0.000000	0.000000	
50	0.000000	0.000000	0.000000	0.000000	0.000000	
51	0.000000	0.000000	0.000000	0.000000	0.000000	
52	0.000000	0.000000	0.000000	0.000000	0.000000	
53	0.000000	0.000000	0.000000	0.000000	0.000000	
54	0.000000	0.000000	0.000000	0.000000	0.000000	
55	0.000000	0.000000	0.000000	0.000000	0.000000	
56	0.000000	0.000000	0.000000	0.000000	0.000000	
57	0.000000	0.000000	0.000000	0.000000	0.000000	
58	0.000000	0.000000	0.000000	0.000000	0.000000	
59	0.000000	0.000000	0.000000	0.000000	0.000000	
60	0.000000	0.000000	0.000000	0.000000	0.000000	
61	0.000000	0.000000	0.000000	0.000000	0.000000	
62	0.000000	0.000000	0.000000	0.000000	0.000000	
63	0.000000	0.000000	0.000000	0.000000	0.000000	
64	0.000000	0.000000	0.000000	0.000000	0.000000	
65	0.000000	0.000000	0.000000	0.000000	0.000000	
66	0.000000	0.000000	0.000000	0.000000	0.000000	
67	0.000000	0.000000	0.000000	0.000000	0.000000	
68	0.000000	0.000000	0.000000	0.000000	0.000000	
69	0.000000	0.000000	0.000000	0.000000	0.000000	
70	0.000000	0.000000	0.000000	0.000000	0.000000	
71	0.000000	0.000000	0.000000	0.000000	0.000000	
72	0.000000	0.000000	0.000000	0.000000	0.000000	
73	0.000000	0.000000	0.000000	0.000000	0.000000	
74	0.000000	0.000000	0.000000	0.000000	0.000000	
75	0.000000	0.000000	0.000000	0.000000	0.000000	
76	0.000000	0.000000	0.000000	0.000000	0.000000	
77	0.000000	0.000000	0.000000	0.000000	0.000000	
78	0.000000	0.000000	0.000000	0.000000	0.000000	
79	0.000000	0.000000	0.000000	0.000000	0.000000	
80	0.000000	0.000000	0.000000	0.000000	0.000000	
81	0.000000	0.000000	0.000000	0.000000	0.000000	
82	0.000000	0.000000	0.000000	0.000000	0.000000	
83	0.000000	0.000000	0.000000	0.000000	0.000000	
84	0.000000	0.000000	0.000000	0.000000	0.000000	
85	0.000000	0.000000	0.000000	0.000000	0.000000	
86	0.000000	0.000000	0.000000	0.000000	0.000000	
87	0.000000	0.000000	0.000000	0.000000	0.000000	
88	0.000000	0.000000	0.000000	0.000000	0.000000	
89	0.000000	0.000000	0.000000	0.000000	0.000000	
90	0.000000	0.000000	0.000000	0.000000	0.000000	
91	0.000000	0.000000	0.000000	0.000000	0.000000	
92	0.000000	0.000000	0.000000	0.000000	0.000000	
93	0.000000	0.000000	0.000000	0.000000	0.000000	
94	0.000000	0.000000	0.000000	0.000000	0.000000	
95	0.000000	0.000000	0.000000	0.000000	0.000000	
96	0.000000	0.000000	0.000000	0.000000	0.000000	
97	0.000000	0.000000	0.000000	0.000000	0.000000	
98	0.000000	0.000000	0.000000	0.000000	0.000000	
99	0.000000	0.000000	0.000000	0.000000	0.000000	
100	0.000000	0.000000	0.000000	0.000000	0.000000	
101	0.000000	0.000000	0.000000	0.000000	0.000000	
102	0.000000	0.000000	0.000000	0.000000	0.000000	
103	0.000000	0.000000	0.000000	0.000000	0.000000	
104	0.000000	0.000000	0.000000	0.000000	0.000000	
105	0.000000	0.000000	0.000000	0.000000	0.000000	
106	0.000000	0.000000	0.000000	0.000000	0.000000	
107	0.000000	0.000000	0.000000	0.000000	0.000000	
108	0.000000	0.000000	0.000000	0.000000	0.000000	
109	0.000000	0.000000	0.000000	0.000000	0.000000	
110	0.000000	0.000000	0.000000	0.000000	0.000000	
111	0.000000	0.000000	0.000000	0.000000	0.000000	
112	0.000000	0.000000	0.000000	0.000000	0.000000	
113	0.000000	0.000000	0.000000	0.000000	0.000000	
114	0.000000	0.000000	0.000000	0.000000	0.000000	
115	0.000000	0.000000	0.000000	0.000000	0.000000	
116	0.000000	0.000000	0.000000	0.000000	0.000000	
117	0.000000	0.000000	0.000000	0.000000	0.000000	
118	0.000000	0.000000	0.000000	0.000000	0.000000	
119	0.000000	0.000000	0.000000	0.000000	0.000000	
120	0.000000	0.000000	0.000000	0.000000	0.000000	
121	0.000000	0.000000	0.000000	0.000000	0.000000	
122	0.000000	0.000000	0.000000	0.000000	0.000000	
123	0.000000	0.000000	0.000000	0.000000	0.000000	
124	0.000000	0.000000	0.000000	0.000000	0.000000	
125	0.000000	0.000000	0.000000	0.000000	0.000000	
126	0.000000	0.000000	0.000000	0.000000	0.000000	
127	0.000000	0.000000	0.000000	0.000000	0.000000	
128	0.000000	0.000000	0.000000	0.000000	0.000000	
129	0.000000	0.000000	0.000000	0.000000	0.000000	
130	0.000000	0.000000	0.000000	0.000000	0.000000	
131	0.000000	0.000000	0.000000	0.000000	0.000000	
132	0.000000	0.000000	0.000000	0.000000	0.000000	
133	0.000000	0.000000	0.000000	0.000000	0.000000	
134	0.000000	0.000000	0.000000	0.000000	0.000000	
135	0.000000	0.000000	0.000000	0.000000	0.000000	
136	0.000000	0.000000	0.000000	0.000000	0.000000	
137	0.000000	0.000000	0.000000	0.000000	0.000000	
138	0.000000	0.000000	0.000000	0.000000	0.000000	
139	0.000000	0.000000	0.000000	0.000000	0.000000	
140	0.000000	0.000000	0.000000	0.000000	0.000000	
141	0.000000	0.000000	0.000000	0.000000	0.000000	
142	0.000000	0.000000	0.000000	0.000000	0.000000	
143	0.000000	0.000000	0.000000	0.000000	0.000000	
144	0.000000	0.000000	0.000000	0.000000	0.000000	
145	0.000000	0.000000	0.000000	0.000000	0.000000	
146	0.000000	0.000000	0.000000	0.000000	0.000000	
147	0.000000	0.000000	0.000000	0.000000	0.000000	
148	0.000000	0.000000	0.000000	0.000000	0.000000	
149	0.000000	0.000000	0.000000	0.000000	0.000000	
150	0.000000	0.000000	0.000000	0.000000	0.000000	
151	0.000000	0.000000	0.000000	0.000000	0.000000	
152	0.000000	0.000000	0.000000	0.000000	0.000000	
153	0.000000	0.000000	0.000000	0.000000	0.000000	
154	0.000000	0.000000	0.000000	0.000000	0.000000	
155	0.000000	0.000000	0.000000	0.000000	0.000000	
156	0.000000	0.000000	0.000000	0.000000	0.000000	
157	0.000000	0.000000	0.000000	0.000000	0.000000	
158	0.000000	0.000000	0.000000	0.000000	0.000000	
159	0.000000	0.000000	0.000000	0.000000	0.000000	
160	0.000000	0.000000	0.000000	0.000000	0.000000	
161	0.000000	0.000000	0.000000	0.000000	0.000000	
162	0.000000	0.000000	0.000000	0.000000	0.000000	
163	0.000000	0.000000	0.000000	0.000000	0.000000	
164	0.000000	0.000000	0.000000	0.000000	0.000000	
165	0.000000	0.000000	0.000000	0.000000	0.000000	
166	0.000000	0.000000	0.000000	0.000000	0.000000	
167	0.000000	0.000000	0.000000	0.000000	0.000000	
168	0.000000	0.000000	0.000000	0.000000	0.000000	
169	0.000000	0.000000	0.000000	0.000000	0.000000	
170	0.000000	0.000000	0.000000	0.000000	0.000000	
171	0.000000	0.000000	0.000000	0.000000	0.000000	
172	0.000000	0.000000	0.000000	0.000000	0.000000	
173	0.000000	0.000000	0.000000	0.000000	0.000000	
174	0.000000	0.000000	0.000000	0.000000	0.000000	
175	0.000000	0.000000	0.000000	0.000000	0.000000	
176	0.000000	0.000000	0.000000	0.000000	0.000000	
177	0.000000	0.000000	0.000000	0.000000	0.000000	
178	0.000000	0.000000	0.000000	0.000000	0.000000	
179	0.000000	0.000000	0.000000	0.000000	0.000000	
180	0.000000	0.000000	0.000000	0.000000	0.000000	
181	0.000000	0.000000	0.000000	0.000000	0.000000	
182	0.000000	0.000000	0.000000	0.000000	0.000000	
183	0.000000	0.000000	0.000000	0.000000	0.000000	
184	0.000000	0.000000	0.000000	0.000000	0.000000	
185	0.000000	0.000000	0.000000	0.000000	0.000000	
186	0.000000	0.000000	0.000000	0.000000	0.000000	
187	0.000000	0.000000	0.000000	0.000000	0.000000	
188	0.000000	0.000000	0.000000	0.000000	0.000000	
189	0.000000	0.000000	0.000000	0.000000	0.000000	
190	0.000000	0.000000	0.000000	0.000000	0.000000	
191	0.000000	0.000000	0.000000	0.000000	0.000000	
192	0.000000	0.000000	0.000000	0.000000	0.000000	
193	0.000000	0.000000	0.000000	0.000000	0.000000	
194	0.000000	0.000000	0.000000	0.000000	0.000000	
195	0.000000	0.000000	0.000000	0.000000	0.000000	
196	0.000000	0.000000	0.000000	0.000000	0.000000	
197	0.000000	0.000000	0.000000	0.000000	0.000000	
198	0.000000	0.000000	0.000000	0.000000	0.000000	
199	0.000000	0.000000	0.000000	0.000000	0.000000	
DEPOT_SECTION
0.0000 0.00000
-1
EOF

